(set-logic QF_S)
(declare-fun var0 () String)
(declare-fun var1 () Int)
(declare-fun var2 () Bool)
(declare-fun var3 () String)
(declare-fun var4 () Int)
(declare-fun var5 () Bool)
(declare-fun var6 () String)
(declare-fun var7 () Int)
(declare-fun var8 () Bool)
(assert (>= (str.len var0) (str.indexof "\\8Zwsu#B`#" var0 var4)))
(assert (not var2))
(assert (str.contains (str.at "3|hoxf.n6|" var7) (str.at (str.substr var0 var1 var4) (str.len var3))))
(assert (< (str.indexof var3 "N;rDHE?M;d" var7) (str.len var0)))
(check-sat)